(declare-const a Real)
(declare-const b Real)
(declare-const c Real)
(assert (< 0 a))
(assert (< 0 b))
(assert (< 0 c))
(assert (< c (+ a b)))
(assert (< a (+ b c)))
(assert (< b (+ a c)))
(assert (not (<= (+ (pow (+ a c (* -1 b)) (/ 1 2)) (* (/ 1 2) (pow (+ a b (* -1 c)) (/ 1 2))) (* (/ 1 2) (pow (+ b c (* -1 a)) (/ 1 2))) (* -1 (pow a (/ 1 2))) (* -1 (pow c (/ 1 2)))) 0)))
(check-sat)
(get-model)
(exit)